28 31
86 75
31 9
49 71
49 76
47 26
74 85
6 44
98 53
12 28
45 32
66 44
83 65
5 4
35 63
66 46
61 90
86 84
33 59
21 57
61 100
15 72
21 3
85 38
12 92
41 0
92 8
45 27
40 53
90 44
7 7
68 54
80 79
55 38
73 50
91 32
90 10
92 77
77 86
23 92
85 46
30 62
54 20
34 88
66 4
28 88
30 72
7 49
77 0
10 34
32 70
88 6
61 86
11 81
94 67
78 97
48 78
44 16
25 73
56 81
25 86
57 84
9 10
93 16
46 21
64 92
71 33
36 6
56 54
70 82
50 52
92 21
38 80
67 91
23 73
44 9
53 50
62 72
29 12
44 53
6 68
20 68
35 39
10 65
93 30
31 89
6 3
19 16
17 16
46 9
97 85
21 24
63 90
52 70
29 74
55 75
35 17
35 12
38 0
76 45
